8	8
2	5	7	3	5	3	0	3	3	2	1	4	4	0	6	3
1	3	7	3	2	0	0	2	3	4	5	3	6	5	4	5
2	3	1	1	6	4	7	4	4	5	3	0	0	2	5	5
3	2	4	4	2	4	6	4	5	2	1	5	7	0	0	3
4	0	1	1	2	0	5	3	0	1	6	4	7	2	3	0
5	3	0	2	1	1	3	0	6	5	2	1	7	0	4	4
1	1	0	0	2	4	7	0	4	0	3	1	5	5	6	1
0	4	1	2	3	1	7	0	4	5	5	1	2	3	6	4
